\ This file was automatically generated by Zimpl
\ set E := { read FILE as "<2n,3n>" comment "cpn" };
\ param nodes := max <a,b> in E : max(a,b);
\ do print "Number of nodes:";
\ do print nodes;
\ do print "Number of edges:";
\ do print card(E);
\ set V := { 1 to nodes };
\ var x[V] binary;
\ maximize obj: sum <v> in V do x[v];
\ subto connected:  forall <u,v> in V cross V with u > v and not <u,v> in E and not <v,u> in E:    x[u] + x[v] <= 1;
\Problem name: Clique.zpl
Maximize
 obj:  + x#1 + x#2 + x#3 + x#4 + x#5 + x#6
  + x#7 + x#8 + x#9 + x#10 + x#11 + x#12
  + x#13 + x#14 + x#15 + x#16 + x#17 + x#18
  + x#19 + x#20 + x#21 + x#22 + x#23 + x#24
  + x#25 + x#26 + x#27 + x#28 + x#29 + x#30
  + x#31 + x#32 + x#33 + x#34 + x#35 + x#36
  + x#37 + x#38 + x#39 + x#40 + x#41 + x#42
  + x#43 + x#44 + x#45
Subject to
 connected_1:
  + x#1 + x#10 <= 1
 connected_2:
  + x#2 + x#11 <= 1
 connected_3:
  + x#10 + x#11 <= 1
 connected_4:
  + x#3 + x#12 <= 1
 connected_5:
  + x#10 + x#12 <= 1
 connected_6:
  + x#11 + x#12 <= 1
 connected_7:
  + x#4 + x#13 <= 1
 connected_8:
  + x#5 + x#14 <= 1
 connected_9:
  + x#13 + x#14 <= 1
 connected_10:
  + x#6 + x#15 <= 1
 connected_11:
  + x#13 + x#15 <= 1
 connected_12:
  + x#14 + x#15 <= 1
 connected_13:
  + x#7 + x#16 <= 1
 connected_14:
  + x#8 + x#17 <= 1
 connected_15:
  + x#16 + x#17 <= 1
 connected_16:
  + x#9 + x#18 <= 1
 connected_17:
  + x#16 + x#18 <= 1
 connected_18:
  + x#17 + x#18 <= 1
 connected_19:
  + x#1 + x#19 <= 1
 connected_20:
  + x#5 + x#20 <= 1
 connected_21:
  + x#19 + x#20 <= 1
 connected_22:
  + x#9 + x#21 <= 1
 connected_23:
  + x#19 + x#21 <= 1
 connected_24:
  + x#20 + x#21 <= 1
 connected_25:
  + x#1 + x#22 <= 1
 connected_26:
  + x#4 + x#23 <= 1
 connected_27:
  + x#22 + x#23 <= 1
 connected_28:
  + x#8 + x#24 <= 1
 connected_29:
  + x#22 + x#24 <= 1
 connected_30:
  + x#23 + x#24 <= 1
 connected_31:
  + x#1 + x#25 <= 1
 connected_32:
  + x#6 + x#26 <= 1
 connected_33:
  + x#25 + x#26 <= 1
 connected_34:
  + x#7 + x#27 <= 1
 connected_35:
  + x#25 + x#27 <= 1
 connected_36:
  + x#26 + x#27 <= 1
 connected_37:
  + x#2 + x#28 <= 1
 connected_38:
  + x#4 + x#29 <= 1
 connected_39:
  + x#28 + x#29 <= 1
 connected_40:
  + x#9 + x#30 <= 1
 connected_41:
  + x#28 + x#30 <= 1
 connected_42:
  + x#29 + x#30 <= 1
 connected_43:
  + x#2 + x#31 <= 1
 connected_44:
  + x#5 + x#32 <= 1
 connected_45:
  + x#31 + x#32 <= 1
 connected_46:
  + x#7 + x#33 <= 1
 connected_47:
  + x#31 + x#33 <= 1
 connected_48:
  + x#32 + x#33 <= 1
 connected_49:
  + x#2 + x#34 <= 1
 connected_50:
  + x#6 + x#35 <= 1
 connected_51:
  + x#34 + x#35 <= 1
 connected_52:
  + x#8 + x#36 <= 1
 connected_53:
  + x#34 + x#36 <= 1
 connected_54:
  + x#35 + x#36 <= 1
 connected_55:
  + x#3 + x#37 <= 1
 connected_56:
  + x#6 + x#38 <= 1
 connected_57:
  + x#37 + x#38 <= 1
 connected_58:
  + x#9 + x#39 <= 1
 connected_59:
  + x#37 + x#39 <= 1
 connected_60:
  + x#38 + x#39 <= 1
 connected_61:
  + x#3 + x#40 <= 1
 connected_62:
  + x#5 + x#41 <= 1
 connected_63:
  + x#40 + x#41 <= 1
 connected_64:
  + x#8 + x#42 <= 1
 connected_65:
  + x#40 + x#42 <= 1
 connected_66:
  + x#41 + x#42 <= 1
 connected_67:
  + x#3 + x#43 <= 1
 connected_68:
  + x#4 + x#44 <= 1
 connected_69:
  + x#43 + x#44 <= 1
 connected_70:
  + x#7 + x#45 <= 1
 connected_71:
  + x#43 + x#45 <= 1
 connected_72:
  + x#44 + x#45 <= 1
Bounds
 0 <= x#1 <= 1
 0 <= x#2 <= 1
 0 <= x#3 <= 1
 0 <= x#4 <= 1
 0 <= x#5 <= 1
 0 <= x#6 <= 1
 0 <= x#7 <= 1
 0 <= x#8 <= 1
 0 <= x#9 <= 1
 0 <= x#10 <= 1
 0 <= x#11 <= 1
 0 <= x#12 <= 1
 0 <= x#13 <= 1
 0 <= x#14 <= 1
 0 <= x#15 <= 1
 0 <= x#16 <= 1
 0 <= x#17 <= 1
 0 <= x#18 <= 1
 0 <= x#19 <= 1
 0 <= x#20 <= 1
 0 <= x#21 <= 1
 0 <= x#22 <= 1
 0 <= x#23 <= 1
 0 <= x#24 <= 1
 0 <= x#25 <= 1
 0 <= x#26 <= 1
 0 <= x#27 <= 1
 0 <= x#28 <= 1
 0 <= x#29 <= 1
 0 <= x#30 <= 1
 0 <= x#31 <= 1
 0 <= x#32 <= 1
 0 <= x#33 <= 1
 0 <= x#34 <= 1
 0 <= x#35 <= 1
 0 <= x#36 <= 1
 0 <= x#37 <= 1
 0 <= x#38 <= 1
 0 <= x#39 <= 1
 0 <= x#40 <= 1
 0 <= x#41 <= 1
 0 <= x#42 <= 1
 0 <= x#43 <= 1
 0 <= x#44 <= 1
 0 <= x#45 <= 1
General
 x#1
 x#2
 x#3
 x#4
 x#5
 x#6
 x#7
 x#8
 x#9
 x#10
 x#11
 x#12
 x#13
 x#14
 x#15
 x#16
 x#17
 x#18
 x#19
 x#20
 x#21
 x#22
 x#23
 x#24
 x#25
 x#26
 x#27
 x#28
 x#29
 x#30
 x#31
 x#32
 x#33
 x#34
 x#35
 x#36
 x#37
 x#38
 x#39
 x#40
 x#41
 x#42
 x#43
 x#44
 x#45
End
